<?xml version = "1.0" encoding="UTF-8" standalone="yes"?>
<CPLEXSolution version="1.2">
 <header
   problemName=""
   solutionName="incumbent"
   solutionIndex="-1"
   objectiveValue="3"
   solutionTypeValue="3"
   solutionTypeString="primal"
   solutionStatusValue="101"
   solutionStatusString="integer optimal solution"
   solutionMethodString="mip"
   primalFeasible="1"
   dualFeasible="1"
   MIPNodes="0"
   MIPIterations="0"
   writeLevel="1"/>
 <quality
   epInt="1.0000000000000001e-05"
   epRHS="9.9999999999999995e-07"
   maxIntInfeas="0"
   maxPrimalInfeas="0"
   maxX="3"
   maxSlack="2"/>
 <linearConstraints>
  <constraint name="A" index="0" slack="0"/>
  <constraint name="B_1" index="1" slack="0"/>
  <constraint name="B_2" index="2" slack="0"/>
  <constraint name="C0" index="3" slack="0"/>
  <constraint name="C1" index="4" slack="0"/>
  <constraint name="C2" index="5" slack="0"/>
  <constraint name="D0" index="6" slack="0"/>
  <constraint name="D1" index="7" slack="0"/>
  <constraint name="D2" index="8" slack="0"/>
  <constraint name="FOO_0_1" index="9" slack="0"/>
  <constraint name="FOO_0_2" index="10" slack="0"/>
  <constraint name="FOO_1_0" index="11" slack="2"/>
  <constraint name="FOO_1_2" index="12" slack="0"/>
  <constraint name="FOO_2_0" index="13" slack="0"/>
  <constraint name="FOO_2_1" index="14" slack="1"/>
 </linearConstraints>
 <variables>
  <variable name="x_0_1" index="0" value="0"/>
  <variable name="x_0_2" index="1" value="3"/>
  <variable name="x_1_0" index="2" value="1"/>
  <variable name="x_1_2" index="3" value="0"/>
  <variable name="x_2_0" index="4" value="0"/>
  <variable name="x_2_1" index="5" value="2"/>
  <variable name="y_0_1" index="6" value="0"/>
  <variable name="y_0_2" index="7" value="1"/>
  <variable name="y_1_0" index="8" value="1"/>
  <variable name="y_1_2" index="9" value="0"/>
  <variable name="y_2_0" index="10" value="0"/>
  <variable name="y_2_1" index="11" value="1"/>
 </variables>
</CPLEXSolution>
